
List of user-set options:

                                    Name   Value                used
                           linear_solver = ma57                  yes
                  ma57_automatic_scaling = yes                   yes
                                max_iter = 10000                 yes
                             mu_strategy = adaptive              yes
                             output_file = DynamicOptimization_FtildeState_vAIPOPTinfo.txt  yes
                             print_level = 5                     yes
                      print_user_options = yes                   yes
                                     tol = 1e-006                yes
This is Ipopt version 3.11.0, running with linear solver ma57.

Number of nonzeros in equality constraint Jacobian...:    88201
Number of nonzeros in inequality constraint Jacobian.:    19412
Number of nonzeros in Lagrangian Hessian.............:    34440

Reallocating memory for MA57: lfact (1540610)
Total number of variables............................:    19997
                     variables with only lower bounds:        0
                variables with lower and upper bounds:    19997
                     variables with only upper bounds:        0
Total number of equality constraints.................:    15121
Total number of inequality constraints...............:     9707
        inequality constraints with only lower bounds:     4830
   inequality constraints with lower and upper bounds:       47
        inequality constraints with only upper bounds:     4830

iter    objective    inf_pr   inf_du lg(mu)  ||d||  lg(rg) alpha_du alpha_pr  ls
   0 9.9999900e-003 5.85e+002 1.75e+000   0.0 0.00e+000    -  0.00e+000 0.00e+000   0
   1 1.1623129e+000 2.65e+003 3.53e+001   0.1 1.28e+001    -  8.15e-001 1.00e+000f  1
   2 2.5620940e+000 2.39e+003 7.20e+001  -5.2 3.33e+001   0.0 7.71e-002 1.02e-001h  1
   3 4.0291258e+001 1.16e+003 4.74e+002   0.5 6.32e+001  -0.5 1.00e+000 5.97e-001f  1
   4 7.4651528e+001 2.19e+002 2.52e+002   0.5 3.44e+001  -0.1 8.75e-001 1.00e+000f  1
   5 7.4712408e+001 4.62e+002 2.56e+002  -5.5 5.08e+000  -0.5 6.31e-001 1.00e+000h  1
   6 7.9611972e+001 4.59e+002 1.49e+002   0.3 1.36e+001  -1.0 8.42e-001 5.83e-001f  1
   7 9.5769710e+001 5.81e+002 2.81e+002   0.2 1.62e+001    -  2.32e-001 1.00e+000f  1
   8 1.4353776e+002 8.25e+002 2.39e+002   0.2 4.78e+001    -  1.13e-001 1.00e+000f  1
   9 1.5501368e+002 5.89e+002 1.67e+002   0.2 3.23e+001    -  2.52e-001 7.54e-001f  1
iter    objective    inf_pr   inf_du lg(mu)  ||d||  lg(rg) alpha_du alpha_pr  ls
  10 1.5765912e+002 3.86e+002 1.53e+002   0.2 2.19e+001    -  9.14e-001 2.98e-001f  1
  11 1.5869163e+002 4.71e+002 9.97e+002   0.2 1.86e+001  -0.6 3.21e-001 7.79e-001f  1
  12 1.2642516e+002 1.34e+002 2.80e+002  -1.2 4.48e+001    -  7.07e-001 7.20e-001f  1
  13 1.3302893e+002 4.99e+002 5.14e+002   1.7 4.28e+002  -1.1 2.58e-002 2.87e-002f  1
  14 1.3376747e+002 1.89e+002 2.68e+002   0.2 5.33e+000  -0.6 8.19e-001 5.23e-001h  1
  15 1.5352531e+002 4.98e+001 2.01e+002   0.2 2.32e+001    -  2.84e-001 8.50e-001f  1
  16 1.5383062e+002 1.08e+001 6.72e+001  -1.2 6.59e-001   0.7 9.99e-001 1.00e+000h  1
  17 1.5360708e+002 1.14e-001 2.44e+000  -1.4 2.24e-001   0.2 9.19e-001 1.00e+000h  1
  18 1.5281616e+002 2.42e-002 4.39e-001  -7.4 7.91e-001  -0.3 9.77e-001 1.00e+000f  1
  19 1.5046196e+002 2.31e-001 4.35e-001  -4.5 2.35e+000  -0.7 9.99e-001 1.00e+000f  1
iter    objective    inf_pr   inf_du lg(mu)  ||d||  lg(rg) alpha_du alpha_pr  ls
  20 1.4358365e+002 2.48e+000 4.24e-001  -5.9 6.88e+000  -1.2 1.00e+000 1.00e+000f  1
  21 1.2443019e+002 4.96e+001 3.94e-001  -7.1 1.92e+001  -1.7 1.00e+000 1.00e+000f  1
  22 1.1827171e+002 1.22e+001 3.38e-001  -8.3 6.16e+000  -1.3 1.00e+000 1.00e+000f  1
  23 1.0001506e+002 1.06e+002 3.34e-001  -9.0 1.83e+001  -1.7 1.00e+000 1.00e+000f  1
  24 9.3341952e+001 9.20e+001 3.19e-001  -7.0 4.01e+001  -2.2 1.00e+000 1.66e-001f  1
  25 9.3235862e+001 9.18e+001 3.19e-001  -5.0 8.63e+001  -2.7 1.00e+000 1.23e-003f  1
  26 9.1322691e+001 8.80e+001 3.14e-001  -3.0 4.09e+001  -2.3 1.00e+000 4.68e-002f  1
  27 7.2576589e+001 7.10e+001 3.65e-001  -2.4 8.89e+001  -2.7 1.00e+000 2.11e-001f  1
  28 4.4690480e+001 5.43e+001 2.32e-001  -2.4 1.19e+002  -3.2 9.77e-001 2.34e-001f  1
  29 2.8455651e+001 3.42e+001 1.69e-001  -2.4 4.22e+001  -2.8 1.00e+000 3.85e-001f  1
iter    objective    inf_pr   inf_du lg(mu)  ||d||  lg(rg) alpha_du alpha_pr  ls
  30 1.3269811e+001 2.11e+001 1.12e-001  -2.6 3.95e+001  -3.3 1.00e+000 3.85e-001f  1
  31 1.0516572e+001 1.88e+002 8.48e-001  -2.7 2.78e+001  -2.8 6.11e-002 3.61e-001h  1
  32 1.1992200e+001 8.62e+001 1.35e+000  -2.8 4.21e+000  -1.5 1.88e-001 5.17e-001h  1
  33 1.2505623e+001 2.28e+001 1.03e+000  -2.1 1.76e+000  -2.0 1.00e+000 8.77e-001h  1
  34 9.5711178e+000 5.72e+000 2.02e-001  -2.7 3.37e+000  -2.5 8.61e-001 8.72e-001f  1
  35 7.4023953e+000 5.75e+000 3.87e-001  -3.3 4.33e+000  -2.9 1.00e+000 5.39e-001f  1
  36 5.2768135e+000 4.87e+001 2.16e-001  -3.4 5.44e+000  -3.4 1.00e+000 6.20e-001f  1
  37 5.2667050e+000 8.38e+001 1.46e-001  -2.6 4.16e+001  -3.0 4.60e-001 6.61e-002h  1
  38 4.6115206e+000 7.80e+001 8.23e-001  -3.1 7.25e+000  -3.5 7.26e-001 1.00e+000h  1
  39 4.6135639e+000 1.31e+002 2.83e+000  -3.0 5.51e+000  -4.0 4.23e-001 9.64e-001h  1
iter    objective    inf_pr   inf_du lg(mu)  ||d||  lg(rg) alpha_du alpha_pr  ls
  40 4.6205918e+000 7.55e+001 3.94e-001  -3.1 4.18e+000  -3.5 9.21e-001 1.00e+000h  1
  41 4.0477072e+000 5.69e+001 2.82e-001  -9.1 7.70e+001    -  2.43e-001 2.25e-001h  1
  42 1.7812683e+000 3.37e+001 3.98e-002  -9.2 1.79e+001    -  5.39e-001 8.46e-001h  1
  43 6.8765934e-001 3.30e+001 2.54e-003  -4.0 1.87e+001    -  9.83e-001 1.00e+000h  1
  44 4.2762937e-001 2.01e+001 7.89e-003  -4.6 1.65e+001    -  9.87e-001 1.00e+000h  1
  45 3.7342130e-001 3.56e+001 1.13e-003  -4.6 9.31e+000    -  7.05e-001 1.00e+000h  1
  46 5.0353463e-001 1.26e+001 1.55e-003  -4.3 1.75e+001    -  1.00e+000 1.00e+000h  1
  47 5.0762301e-001 1.08e+001 4.75e-003  -5.5 3.94e+000  -4.0 6.90e-001 1.00e+000h  1
  48 4.9780021e-001 8.33e-001 4.08e-004  -4.5 3.22e-001  -4.5 1.00e+000 1.00e+000h  1
  49 4.3759821e-001 7.54e+000 7.68e-004  -5.2 1.85e+000  -5.0 1.00e+000 9.99e-001h  1
iter    objective    inf_pr   inf_du lg(mu)  ||d||  lg(rg) alpha_du alpha_pr  ls
  50 3.9467217e-001 1.53e+001 1.45e-003  -4.7 2.00e+000  -5.4 1.00e+000 1.00e+000h  1
  51 3.5035962e-001 1.39e+001 2.57e-003  -4.8 1.28e+001    -  5.33e-001 6.32e-001h  1
  52 3.4204498e-001 1.23e+001 2.72e-003  -4.8 4.17e+000    -  1.00e+000 1.00e+000h  1
  53 2.7524680e-001 8.56e+000 1.12e-003  -5.2 6.32e+000    -  9.90e-001 1.00e+000h  1
  54 2.6069342e-001 6.88e+000 3.94e-003  -5.6 1.78e+000  -5.9 9.79e-001 1.00e+000h  1
  55 2.7502288e-001 4.00e+000 4.41e-004  -5.2 1.21e+001    -  1.00e+000 1.00e+000h  1
  56 2.5831592e-001 1.76e+001 3.68e-003  -5.5 5.78e+000    -  8.60e-001 1.00e+000h  1
  57 2.5984904e-001 3.32e+001 1.65e-003  -5.4 1.03e+001    -  5.23e-001 8.55e-001h  1
  58 2.5647546e-001 2.49e+000 2.89e-004  -5.5 4.96e+000    -  9.91e-001 1.00e+000h  1
  59 2.4664833e-001 3.62e+000 3.42e-004  -5.8 6.22e+000    -  9.04e-001 1.00e+000h  1
iter    objective    inf_pr   inf_du lg(mu)  ||d||  lg(rg) alpha_du alpha_pr  ls
  60 2.4428693e-001 8.50e-001 1.33e-004  -6.2 9.78e-001  -5.5 9.95e-001 1.00e+000h  1
  61 2.4207329e-001 2.99e+000 2.02e-004  -6.3 6.17e-001  -6.0 1.00e+000 1.00e+000h  1
  62 2.4058308e-001 4.58e-001 8.96e-005  -6.5 1.18e+000  -6.4 1.00e+000 1.00e+000h  1
  63 2.3973475e-001 2.51e-001 1.93e-005  -7.0 5.33e-001  -6.0 1.00e+000 1.00e+000h  1
  64 2.3996405e-001 2.12e-001 3.74e-006  -6.7 9.53e-001  -6.5 1.00e+000 1.00e+000h  1
  65 2.3991746e-001 2.84e-001 5.35e-006  -6.8 1.96e+000  -7.0 1.00e+000 1.00e+000h  1
  66 2.4058307e-001 2.88e+000 5.49e-005  -6.5 2.18e+000  -7.4 1.00e+000 1.00e+000h  1
  67 2.4042174e-001 1.85e+000 1.23e-003  -6.6 2.40e+001    -  2.38e-001 5.29e-001h  1
  68 2.4035269e-001 1.62e+000 1.28e-004  -6.6 1.24e+001    -  9.30e-001 5.00e-001h  2
  69 2.4033295e-001 1.31e+000 7.12e-005  -6.6 2.37e+001    -  2.43e-001 2.77e-001h  2
iter    objective    inf_pr   inf_du lg(mu)  ||d||  lg(rg) alpha_du alpha_pr  ls
  70 2.4028334e-001 8.15e-002 4.54e-006  -6.6 2.16e+000  -7.9 1.00e+000 1.00e+000h  1
  71 2.3936028e-001 2.35e+000 1.88e-004  -7.2 9.39e+000    -  7.75e-001 1.00e+000h  1
  72 2.3932267e-001 5.60e+000 3.05e-005  -7.3 8.85e+000    -  1.00e+000 1.00e+000h  1
  73 2.3932169e-001 1.40e+000 4.08e-004  -7.3 3.47e+000    -  8.64e-001 1.00e+000h  1
  74 2.3923087e-001 1.48e-001 5.78e-004  -7.4 3.55e+000    -  8.00e-001 1.00e+000h  1
  75 2.3918179e-001 7.44e-002 2.80e-007  -7.6 2.48e+000    -  1.00e+000 1.00e+000h  1
  76 2.3909731e-001 5.00e-001 5.20e-005  -8.3 1.09e+000  -8.4 8.68e-001 1.00e+000h  1
  77 2.3908729e-001 5.39e-002 4.06e-007  -8.7 2.42e+000  -8.9 1.00e+000 1.00e+000h  1
  78 2.3910642e-001 1.68e-002 4.02e-007  -8.2 1.38e+000  -9.4 1.00e+000 1.00e+000h  1
  79 2.3908568e-001 1.88e-002 1.83e-007  -8.7 8.98e-001  -8.9 1.00e+000 1.00e+000h  1
iter    objective    inf_pr   inf_du lg(mu)  ||d||  lg(rg) alpha_du alpha_pr  ls
  80 2.3908199e-001 1.17e-002 2.40e-007  -9.1 1.48e+000  -9.4 1.00e+000 1.00e+000h  1
  81 2.3908040e-001 8.47e-003 1.32e-005  -9.4 6.19e-001  -9.0 8.94e-001 1.00e+000h  1
  82 2.3907990e-001 1.02e-002 6.66e-008  -9.6 2.40e-001  -8.6 1.00e+000 1.00e+000h  1
  83 2.3907922e-001 4.46e-003 3.33e-008 -10.2 1.32e-001  -8.1 1.00e+000 1.00e+000h  1
  84 2.3908034e-001 1.18e-003 4.77e-008  -9.4 3.83e-001  -8.6 1.00e+000 1.00e+000h  1
  85 2.3908019e-001 2.10e-002 3.47e-005  -9.5 5.53e+000  -9.1 4.46e-001 5.55e-001h  1
  86 2.3908007e-001 4.64e-003 1.05e-006  -9.5 1.55e+000  -9.6 1.00e+000 1.00e+000f  1
  87 2.3908006e-001 4.11e-003 5.06e-006  -9.5 1.93e+000 -10.0 1.00e+000 8.02e-001h  1
  88 2.3908006e-001 8.21e-003 2.73e-007  -9.5 3.30e+000 -10.5 1.00e+000 1.00e+000h  1
  89 2.3908006e-001 1.17e-002 3.59e-007  -9.5 5.53e+000 -11.0 1.00e+000 1.00e+000h  1
iter    objective    inf_pr   inf_du lg(mu)  ||d||  lg(rg) alpha_du alpha_pr  ls
  90 2.3908006e-001 1.34e-002 4.17e-007  -9.5 8.77e+000 -11.5 1.00e+000 1.00e+000h  1
  91 2.3908006e-001 1.15e-002 1.51e-006  -9.5 4.22e+001 -11.9 6.55e-001 1.64e-001h  2
  92 2.3908006e-001 3.10e-003 9.88e-007  -9.5 4.35e+000 -10.6 1.00e+000 1.00e+000h  1
  93 2.3907925e-001 4.72e-003 1.28e-007 -10.1 7.71e-001  -9.3 1.00e+000 1.00e+000h  1
  94 2.3907920e-001 1.22e-004 3.66e-008 -10.2 3.68e-001  -8.9 1.00e+000 1.00e+000h  1
  95 2.3907912e-001 2.10e-003 8.81e-006 -11.0 4.08e+000  -9.3 3.24e-001 3.54e-001h  1
  96 2.3907967e-001 7.83e-003 5.98e-004  -9.6 1.81e+001    -  9.76e-001 6.58e-001h  1
  97 2.3907974e-001 2.40e-003 2.31e-007  -9.7 7.38e+000    -  1.00e+000 1.00e+000h  1
  98 2.3907973e-001 2.04e-003 3.70e-005  -9.7 5.26e+000    -  5.63e-001 2.53e-001H  1
  99 2.3907973e-001 4.78e-004 1.51e-008  -9.7 2.97e+000    -  1.00e+000 1.00e+000f  1
iter    objective    inf_pr   inf_du lg(mu)  ||d||  lg(rg) alpha_du alpha_pr  ls
 100 2.3907973e-001 1.45e-006 1.81e-009  -9.7 1.64e-001    -  1.00e+000 1.00e+000h  1

Number of Iterations....: 100

                                   (scaled)                 (unscaled)
Objective...............:  2.3907973316785899e-001   2.3907973316785899e-001
Dual infeasibility......:  1.8067337166312503e-009   1.8067337166312503e-009
Constraint violation....:  2.9494900164403870e-007   1.4539605768248975e-006
Complementarity.........:  2.1940430486064218e-010   2.1940430486064218e-010
Overall NLP error.......:  2.9494900164403870e-007   1.4539605768248975e-006


Number of objective function evaluations             = 107
Number of objective gradient evaluations             = 101
Number of equality constraint evaluations            = 107
Number of inequality constraint evaluations          = 107
Number of equality constraint Jacobian evaluations   = 101
Number of inequality constraint Jacobian evaluations = 101
Number of Lagrangian Hessian evaluations             = 100
Total CPU secs in IPOPT (w/o function evaluations)   =     33.088
Total CPU secs in NLP function evaluations           =      7.287

EXIT: Optimal Solution Found.
